1111100 AB
420 450 480 510 540 570 600 630 660 690 720 750 780 810 840 870 900 930 960 990 1020 1050 1080 1110 1140 1170 1200
1111100 BA
472 502 532 562 592 622 652 682 712 742 772 802 832 862 892 922 952 982 1012 1042 1072 1102 1132 1162 1192 1222 1252
0000011 AB
420 450 480 510 540 570 600 630 660 690 720 750 780 810 840 870 900 930 960 990 1020 1050 1080 1110 1140 1170 1200
0000011 BA
472 502 532 562 592 622 652 682 712 742 772 802 832 862 892 922 952 982 1012 1042 1072 1102 1132 1162 1192 1222 1252
